\ LP format - for model browsing. Use MPS format to capture full model detail.
Maximize
  47 z1 + 23.31818181818181 z2 + 40.22727272727272 z3 + 12.72727272727272 z4
   + 26 z5 + 21.22727272727273 z6 + 19 z7 + 10.59090909090909 z8 + 18 z9
   + 31.81818181818181 z10 + 12.72727272727272 z11 + 44.90909090909091 z12
   + 19.09090909090909 z13 + 31.77272727272728 z14 + 39.27272727272727 z15
   + 38.09090909090909 z16 + 36 z17 + 40.27272727272727 z18
   + 46.59090909090908 z19 + 40 z20
Subject To
 constraint1: 47 z1 + 24 z2 + 41 z3 + 14 z4 + 26 z5 + 23 z6 + 19 z7 + 11 z8
   + 18 z9 + 33 z10 + 13 z11 + 46 z12 + 20 z13 + 32 z14 + 41 z15 + 39 z16
   + 36 z17 + 41 z18 + 48 z19 + 40 z20 <= 200
 constraints2_5_&_9: z5 - z9 = 0
 constraints2_9_&_15: z9 - z15 = 0
 constraints2_15_&_20: z15 - z20 = 0
 constraints3_1_|_3: z1 + z3 <= 1
 constraints3_1_|_5: z1 + z5 <= 1
 constraints3_1_|_9: z1 + z9 <= 1
 constraints3_1_|_12: z1 + z12 <= 1
 constraints3_2_|_10: z2 + z10 <= 1
 constraints3_3_|_7: z3 + z7 <= 1
 constraints3_3_|_11: z3 + z11 <= 1
 constraints3_5_|_12: z5 + z12 <= 1
 constraints3_5_|_14: z5 + z14 <= 1
 constraints3_5_|_17: z5 + z17 <= 1
 constraints3_5_|_18: z5 + z18 <= 1
 constraints3_6_|_10: z6 + z10 <= 1
 constraints3_7_|_16: z7 + z16 <= 1
 constraints3_9_|_14: z9 + z14 <= 1
 constraints3_9_|_18: z9 + z18 <= 1
 constraints3_10_|_18: z10 + z18 <= 1
 constraints3_11_|_18: z11 + z18 <= 1
 constraints3_12_|_15: z12 + z15 <= 1
 constraints3_14_|_17: z14 + z17 <= 1
 constraints3_18_|_20: z18 + z20 <= 1
Bounds
Binaries
 z1 z2 z3 z4 z5 z6 z7 z8 z9 z10 z11 z12 z13 z14 z15 z16 z17 z18 z19 z20
End
